0.750000 0.250000 0.500000
5
3 2 3 4 
5 5 6 7 8 9 
5 10 11 12 13 14 
4 15 16 17 18 
3 19 20 21 
1 1 
1 2 
1 2 
1 2 
1 2 
1 2 
1 2 
1 2 
1 2 
1 2 
1 2 
1 2 
1 2 
1 3 
1 3 
1 3 
1 3 
1 3 
1 3 
1 3 
1 3 
1 3 
1 3 
1 3 
1 3 
1 4 
1 4 
1 4 
1 4 
1 4 
1 4 
1 4 
1 4 
1 4 
1 4 
1 4 
1 4 
1 1 
1 5 
1 5 
1 5 
1 5 
1 5 
1 5 
1 5 
1 5 
1 5 
1 5 
1 5 
1 5 
1 6 
1 6 
1 6 
1 6 
1 6 
1 6 
1 6 
1 6 
1 6 
1 6 
1 6 
1 6 
1 7 
1 7 
1 7 
1 7 
1 7 
1 7 
1 7 
1 7 
1 7 
1 7 
1 7 
1 7 
1 8 
1 8 
1 8 
1 8 
1 8 
1 8 
1 8 
1 8 
1 8 
1 8 
1 8 
1 8 
1 9 
1 9 
1 9 
1 9 
1 9 
1 9 
1 9 
1 9 
1 9 
1 9 
1 9 
1 9 
1 1 
1 10 
1 10 
1 10 
1 10 
1 10 
1 10 
1 10 
1 10 
1 10 
1 10 
1 10 
1 10 
1 10 
1 10 
1 10 
1 10 
1 10 
1 10 
1 10 
1 10 
1 10 
1 10 
1 11 
1 11 
1 11 
1 11 
1 11 
1 11 
1 11 
1 11 
1 11 
1 11 
1 11 
1 11 
1 11 
1 11 
2 11 7 
1 11 
2 11 7 
1 11 
1 11 
1 11 
1 11 
2 11 7 
1 12 
1 12 
1 12 
1 12 
1 12 
1 12 
1 12 
1 12 
1 12 
1 12 
1 12 
1 12 
1 12 
1 12 
1 12 
1 12 
1 12 
1 12 
1 12 
1 12 
1 12 
1 12 
1 13 
1 13 
1 13 
2 13 3 
2 13 3 
2 13 3 
2 13 3 
2 13 3 
2 13 3 
2 13 3 
2 13 3 
2 13 3 
2 13 3 
2 13 3 
2 13 3 
2 13 3 
3 13 3 4 
2 13 3 
1 13 
1 13 
1 13 
3 13 3 4 
1 14 
2 14 10 
2 14 10 
2 14 10 
2 14 10 
1 14 
2 14 10 
2 14 10 
2 14 10 
2 14 9 
1 14 
3 14 9 10 
1 15 
1 15 
1 15 
1 15 
2 15 2 
3 15 2 8 
1 15 
3 15 2 8 
1 15 
3 15 2 8 
3 15 2 8 
3 15 2 8 
1 16 
1 16 
1 16 
1 16 
1 16 
1 16 
1 16 
1 16 
1 16 
1 16 
1 16 
1 16 
1 17 
1 17 
1 17 
1 17 
1 17 
1 17 
1 17 
1 17 
1 17 
1 17 
1 17 
1 17 
1 18 
1 18 
1 18 
1 18 
1 18 
1 18 
1 18 
1 18 
2 18 5 
1 18 
1 18 
2 18 5 
1 1 
1 19 
1 19 
1 19 
1 19 
1 19 
1 19 
1 19 
1 19 
1 19 
1 19 
1 19 
1 19 
1 20 
1 20 
1 20 
1 20 
1 20 
1 20 
1 20 
2 20 6 
1 20 
1 20 
1 20 
2 20 6 
1 21 
1 21 
1 21 
1 21 
1 21 
1 21 
1 21 
1 21 
1 21 
1 21 
1 21 
1 21 
1 1 
